; Copyright (c) 2026 The RIINA Authors. All rights reserved.
; Copyright (c) 2026 The RIINA Authors.
; Auto-generated from 02_FORMAL/coq/properties/check_ax.v (0 assertions)
; Generated by scripts/generate-full-stack.py
; Module: check_ax

(set-logic ALL)
(set-option :produce-models true)

; Verify all assertions are satisfiable
(check-sat)
(exit)
